==> CUTFACTOR            = 1
==> MAXTIME              = 3600
==> OUTPUTLOG            = 1
FICO Xpress v8.5.9, solve started 23:36:40, Jun 8, 2019
Maximizing MILP Seating model
Original problem has:
       230 rows          300 cols         7440 elements       300 globals
Presolved problem has:
       103 rows          204 cols         2431 elements       198 globals
LP relaxation tightened
Will try to keep branch and bound tree memory usage below 7.2GB
 *** Heuristic solution found:    22.000000      Time: 0 ***
Starting concurrent solve with dual

 Concurrent-Solve,   0s
            Dual        
    objective   dual inf
 D  102.00000   .0000000
------- optimal --------
Concurrent statistics:
      Dual: 34 simplex iterations, 0.00s
Optimal solution found
 
   Its         Obj Value      S   Ninf  Nneg   Sum Dual Inf  Time
    34        102.000000      D      0     0        .000000     0
Dual solved problem
  34 simplex iterations in 0s

Final objective                         : 1.020000000000000e+02
  Max primal violation      (abs / rel) : 1.110e-16 / 9.869e-17
  Max dual violation        (abs / rel) :       0.0 /       0.0
  Max complementarity viol. (abs / rel) :       0.0 /       0.0
All values within tolerances

Starting root cutting & heuristics
 
 Its Type    BestSoln    BestBound   Sols    Add    Del     Gap     GInf   Time
   1  K     22.000000   102.000000      1     38      0   78.43%      29      0
b           29.000000   102.000000      2                 71.57%       0      0
   2  K     29.000000   102.000000      2     42     26   71.57%      36      0
   3  K     29.000000   102.000000      2     35     39   71.57%      36      0
   4  K     29.000000   102.000000      2     49     28   71.57%      45      0
   5  K     29.000000   102.000000      2     39     47   71.57%      46      0
   6  K     29.000000   102.000000      2     49     36   71.57%      53      0
   7  K     29.000000   102.000000      2     38     41   71.57%      53      0
   8  K     29.000000   102.000000      2     38     40   71.57%      43      0
   9  K     29.000000   102.000000      2     47     38   71.57%      53      0
  10  K     29.000000   102.000000      2     30     45   71.57%      52      0
  11  K     29.000000   102.000000      2     36     34   71.57%      43      0
  12  K     29.000000   102.000000      2     46     39   71.57%      48      0
  13  K     29.000000   102.000000      2     48     38   71.57%      62      0
  14  K     29.000000   102.000000      2     49     43   71.57%      67      0
  15  K     29.000000   102.000000      2     49     48   71.57%      53      0
  16  K     29.000000   102.000000      2     43     60   71.57%      50      0
  17  K     29.000000   102.000000      2     49     52   71.57%      47      0
  18  K     29.000000   102.000000      2     49     48   71.57%      46      0
  19  K     29.000000   102.000000      2     43     49   71.57%      49      0
b           30.000000   102.000000      3                 70.59%       0      0
  20  K     30.000000   102.000000      3     48     81   70.59%      48      0
  21  G     30.000000   102.000000      3     19      1   70.59%      56      0
  22  G     30.000000   102.000000      3     40     70   70.59%      44      0
Heuristic search started
Heuristic search stopped
M           33.000000   102.000000      4                 67.65%       0      0
M           35.000000   102.000000      5                 65.69%       0      0
M           38.000000   102.000000      6                 62.75%       0      0
M           41.000000   102.000000      7                 59.80%       0      0
 
Cuts in the matrix         : 21
Cut elements in the matrix : 470
 
Starting tree search.
Deterministic mode with up to 4 running threads and up to 8 tasks.
 
    Node     BestSoln    BestBound   Sols Active  Depth     Gap     GInf   Time
       1    41.000000   102.000000      7      2      1   59.80%      40      0
       2    41.000000   102.000000      7      2      3   59.80%      35      0
       3    41.000000   102.000000      7      2      4   59.80%      34      0
       4    41.000000   102.000000      7      2      3   59.80%      38      0
       5    41.000000   102.000000      7      2      5   59.80%      33      0
       6    41.000000   102.000000      7      5      4   59.80%      35      0
       7    41.000000   102.000000      7      5      4   59.80%      36      0
       8    41.000000   102.000000      7      5      5   59.80%      33      0
       9    41.000000   102.000000      7      8      5   59.80%      34      0
      10    41.000000   102.000000      7      8      6   59.80%      26      0
      30    41.000000   102.000000      7     17     16   59.80%      20      0
      46    41.000000   102.000000      7     22     18   59.80%      13      0
      64    41.000000   102.000000      7     22     28   59.80%       9      0
a     83    42.000000   102.000000      8     22     20   58.82%       0      0
      96    42.000000   102.000000      8     22     16   58.82%      20      0
a     97    50.000000   102.000000      9     22     17   50.98%       0      0
a     99    60.000000   102.000000     10     22     19   41.18%       0      0
     107    60.000000   102.000000     10     22     23   41.18%      17      0
     213    60.000000   102.000000     10     60     15   41.18%      27      0
B&B tree size: 0.6MB total
 
    Node     BestSoln    BestBound   Sols Active  Depth     Gap     GInf   Time
     326    60.000000   102.000000     10     60     21   41.18%      12      0
     430    60.000000   102.000000     10     81     18   41.18%      27      0
     539    60.000000   102.000000     10    117     18   41.18%      17      0
     644    60.000000   102.000000     10    139     22   41.18%      34      0
     752    60.000000   102.000000     10    169     17   41.18%      17      0
     856    60.000000   102.000000     10    169     17   41.18%      23      0
     969    60.000000   102.000000     10    185     27   41.18%      12      0
    1085    60.000000   102.000000     10    185     22   41.18%      28      0
    1202    60.000000   102.000000     10    185     27   41.18%      29      1
    1305    60.000000   102.000000     10    236     24   41.18%      14      1
    1410    60.000000   101.598483     10    308     18   40.94%      35      1
    1525    60.000000   101.598483     10    341     16   40.94%      38      1
    1628    60.000000   101.598483     10    379     24   40.94%      31      1
    1734    60.000000   101.598483     10    379     14   40.94%      26      1
    1840    60.000000   101.598483     10    400     16   40.94%      28      1
    1968    60.000000   101.598483     10    400     20   40.94%      44      1
    2081    60.000000   101.598483     10    461     18   40.94%      51      1
    2199    60.000000   101.598483     10    461     19   40.94%      35      1
    2308    60.000000   101.598483     10    461     14   40.94%      16      1
    2417    60.000000   101.598483     10    484     17   40.94%      39      1
B&B tree size: 3.2MB total
 
    Node     BestSoln    BestBound   Sols Active  Depth     Gap     GInf   Time
    2519    60.000000   101.598483     10    484     19   40.94%      25      1
    2619    60.000000   101.598483     10    537     18   40.94%      18      1
    2721    60.000000   101.598483     10    537     24   40.94%      17      1
    2841    60.000000   101.598483     10    574     18   40.94%      27      1
    2955    60.000000   101.598483     10    574     22   40.94%      22      1
    3072    60.000000   101.598483     10    574     19   40.94%      30      1
    3184    60.000000   101.598483     10    574     18   40.94%      32      1
    3294    60.000000   101.598483     10    574     20   40.94%      33      1
    3399    60.000000   101.598483     10    574     21   40.94%      10      1
    3511    60.000000   100.444444     10    661     21   40.27%      40      1
    3615    60.000000   100.444444     10    661     13   40.27%      35      1
    3732    60.000000   100.444444     10    661     24   40.27%      37      2
    3834    60.000000   100.444444     10    661     19   40.27%      16      2
    3956    60.000000   100.444444     10    661     21   40.27%      18      2
    4069    60.000000   100.444444     10    726     24   40.27%      25      2
    4183    60.000000   100.444444     10    779     16   40.27%      17      2
    4290    60.000000   100.444444     10    779     18   40.27%      45      2
    4403    60.000000   100.444444     10    779     24   40.27%      29      2
    4515    60.000000   100.444444     10    839     23   40.27%      37      2
    4625    60.000000   100.444444     10    871     23   40.27%      22      2
B&B tree size: 6.0MB total
 
    Node     BestSoln    BestBound   Sols Active  Depth     Gap     GInf   Time
    4727    60.000000   100.444444     10    939     16   40.27%      44      2
    4849    60.000000   100.444444     10   1008     26   40.27%      30      2
    4954    60.000000   100.444444     10   1008     22   40.27%      40      2
    5054    60.000000   100.444444     10   1153     14   40.27%      34      2
    5157    60.000000   100.444444     10   1153     21   40.27%      36      2
    5267    60.000000   100.444444     10   1153     16   40.27%      36      2
    5377    60.000000   100.444444     10   1153     16   40.27%      27      2
    5496    60.000000   100.444444     10   1153     25   40.27%      14      2
    5598    60.000000   100.444444     10   1153     17   40.27%      40      2
    5708    60.000000   100.444444     10   1193     25   40.27%      36      2
    5820    60.000000   100.444444     10   1193     18   40.27%      14      2
    5921    60.000000   100.444444     10   1286     16   40.27%      37      2
    6030    60.000000   100.444444     10   1286     25   40.27%      17      2
    6147    60.000000   100.444444     10   1286     25   40.27%      31      2
    6248    60.000000   100.444444     10   1286     16   40.27%      25      3
    6363    60.000000   100.444444     10   1286     25   40.27%       6      3
    6468    60.000000   100.444444     10   1286     16   40.27%      28      3
    6572    60.000000   100.444444     10   1311     24   40.27%      33      3
    6677    60.000000   100.444444     10   1350     19   40.27%      20      3
    6788    60.000000   100.444444     10   1350     22   40.27%      21      3
B&B tree size: 7.7MB total
 
    Node     BestSoln    BestBound   Sols Active  Depth     Gap     GInf   Time
    6903    60.000000   100.444444     10   1350     23   40.27%      27      3
    7004    60.000000   100.444444     10   1379     24   40.27%      41      3
    7105    60.000000   100.444444     10   1379     16   40.27%      42      3
    7212    60.000000   100.444444     10   1457     19   40.27%      23      3
    7326    60.000000   100.444444     10   1471     16   40.27%      41      3
    7435    60.000000   100.444444     10   1498     19   40.27%      33      3
    7546    60.000000   100.444444     10   1498     20   40.27%      39      3
    7655    60.000000    96.561890     10   1715     25   37.86%      32      3
    7760    60.000000    96.561890     10   1715     19   37.86%      20      3
    7868    60.000000    96.561890     10   1715     24   37.86%      10      3
    7970    60.000000    96.561890     10   1715     24   37.86%      10      3
    8070    60.000000    96.561890     10   1733     17   37.86%      41      3
    8182    60.000000    96.561890     10   1733     21   37.86%      35      3
    8297    60.000000    96.561890     10   1733     24   37.86%      47      3
    8409    60.000000    96.561890     10   1759     20   37.86%      40      3
    8522    60.000000    96.561890     10   1796     26   37.86%      23      4
    8627    60.000000    96.561890     10   1796     22   37.86%      28      4
    8738    60.000000    96.561890     10   1830     23   37.86%      27      4
    8844    60.000000    96.561890     10   1830     16   37.86%      41      4
    8944    60.000000    96.561890     10   1830     26   37.86%      12      4
B&B tree size: 9.4MB total
 
    Node     BestSoln    BestBound   Sols Active  Depth     Gap     GInf   Time
    9054    60.000000    96.561890     10   1830     25   37.86%      21      4
    9174    60.000000    96.561890     10   1830     19   37.86%      12      4
    9291    60.000000    96.561890     10   1830     23   37.86%      31      4
    9404    60.000000    96.561890     10   1830     25   37.86%      35      4
    9519    60.000000    96.561890     10   1901     22   37.86%      39      4
    9627    60.000000    96.561890     10   1901     25   37.86%      32      4
    9742    60.000000    89.578125     10   1981     24   33.02%      26      4
    9847    60.000000    89.578125     10   1981     25   33.02%      20      4
    9961    60.000000    89.578125     10   2012     25   33.02%      18      4
   10068    60.000000    89.578125     10   2012     16   33.02%      29      4
   11076    60.000000    89.000000     10   2190     24   32.58%      41      5
   12093    60.000000    86.321637     10   2292     19   30.49%      25      5
   13094    60.000000    83.024858     10   2424     23   27.73%      26      5
   14105    60.000000    82.740713     10   2512     22   27.48%      35      6
   15110    60.000000    82.740713     10   2622     16   27.48%      12      6
   16135    60.000000    82.000000     10   2759     31   26.83%      19      7
   17142    60.000000    82.000000     10   2828     16   26.83%      35      7
   18156    60.000000    82.000000     10   2899     18   26.83%      24      7
   19174    60.000000    81.517760     10   2956     21   26.40%      21      8
   20175    60.000000    79.948642     10   2959      1   24.95%       1      8
B&B tree size: 15MB total
 
    Node     BestSoln    BestBound   Sols Active  Depth     Gap     GInf   Time
   21176    60.000000    79.822222     10   3011     23   24.83%      41      9
   22185    60.000000    78.923169     10   3013     25   23.98%      29      9
   23188    60.000000    78.318635     10   3054     19   23.39%      24      9
   24191    60.000000    78.000000     10   3075     23   23.08%      26     10
   25194    60.000000    78.000000     10   3079     25   23.08%      38     10
   26202    60.000000    77.128064     10   3113     20   22.21%      20     10
   27206    60.000000    76.378947     10   3089     20   21.44%      27     11
   28222    60.000000    75.684211     10   3043     22   20.72%      33     11
   29230    60.000000    75.140613     10   3005     24   20.15%      31     12
   30251    60.000000    75.000000     10   2986     23   20.00%      18     12
   31255    60.000000    74.484488     10   2920     23   19.45%      27     12
   32263    60.000000    74.019203     10   2896     23   18.94%      27     13
   33273    60.000000    74.000000     10   2924     27   18.92%      26     13
   34274    60.000000    74.000000     10   2885     23   18.92%      26     13
   35282    60.000000    73.014493     10   2819     21   17.82%       9     14
   36283    60.000000    73.000000     10   2782     25   17.81%      31     14
   37284    60.000000    73.000000     10   2744     19   17.81%      31     14
   38285    60.000000    72.000000     10   2649     18   16.67%      23     15
   39286    60.000000    71.685754     10   2534     22   16.30%      34     15
   40288    60.000000    71.000000     10   2430     25   15.49%      15     15
B&B tree size: 17MB total
 
    Node     BestSoln    BestBound   Sols Active  Depth     Gap     GInf   Time
   41289    60.000000    71.000000     10   2275     24   15.49%      30     16
   42294    60.000000    70.000000     10   2146     26   14.29%      29     16
   43321    60.000000    69.027124     10   2005     26   13.08%      14     16
   44330    60.000000    69.000000     10   1945     22   13.04%      13     17
   45340    60.000000    68.125000     10   1727     27   11.93%      20     17
   46340    60.000000    68.000000     10   1591     25   11.76%      28     17
   47342    60.000000    67.015050     10   1396     23   10.47%       9     17
   48342    60.000000    66.005447     10   1141      6    9.10%      23     18
   49342    60.000000    64.357079     10    740     22    6.77%      32     18
   50342    60.000000    64.000000     10    349     17    6.25%      26     18
 *** Search completed ***     Time:    18 Nodes:      51181
Number of integer feasible solutions found is 10
Best integer solution found is    60.000000
Best bound is    60.000000
Uncrunching matrix
